50	100	100	100
95	88	46
72	91	11
76	70	35
84	86	3
69	90	33
66	82	8
96	74	25
81	74	36
91	69	4
92	71	4
87	82	10
99	81	19
80	97	24
72	84	43
75	73	44
67	87	45
70	82	2
75	80	25
82	91	40
72	93	27
81	89	10
85	72	40
92	94	39
94	91	38
76	87	34
71	91	16
82	71	48
89	86	17
71	82	44
99	98	40
79	84	4
68	90	31
96	86	19
85	86	10
88	91	2
96	69	45
80	83	13
67	89	49
84	73	42
95	90	37
77	90	17
90	97	40
98	84	34
82	97	14
82	77	15
73	83	32
74	84	13
80	66	44
87	73	26
85	88	34
